solution status: optimal solution found
objective value:                      193056.71957195
d11(0,0)                                            1 	(obj:0)
d11(1,1)                                            1 	(obj:0)
d11(1,2)                                            1 	(obj:0)
d11(2,3)                                            1 	(obj:0)
d11(3,7)                                            1 	(obj:0)
d11(3,8)                                            1 	(obj:0)
d11(3,9)                                            1 	(obj:0)
d11(3,11)                                           1 	(obj:0)
d11(3,12)                                           1 	(obj:0)
d11(3,13)                                           1 	(obj:0)
d11(3,14)                                           1 	(obj:0)
d11(4,15)                                           1 	(obj:0)
d11(4,27)                                           1 	(obj:0)
d11(4,29)                                           1 	(obj:0)
d11(5,31)                                           1 	(obj:0)
d11(5,32)                                           1 	(obj:0)
d11(5,33)                                           1 	(obj:0)
d11(5,34)                                           1 	(obj:0)
d11(5,35)                                           1 	(obj:0)
d11(5,36)                                           1 	(obj:0)
d11(5,37)                                           1 	(obj:0)
d11(5,38)                                           1 	(obj:0)
d11(5,39)                                           1 	(obj:0)
d11(5,40)                                           1 	(obj:0)
d11(5,41)                                           1 	(obj:0)
d11(5,43)                                           1 	(obj:0)
d11(5,44)                                           1 	(obj:0)
d11(5,45)                                           1 	(obj:0)
d11(5,46)                                           1 	(obj:0)
d11(5,47)                                           1 	(obj:0)
d11(5,49)                                           1 	(obj:0)
d11(5,51)                                           1 	(obj:0)
d11(5,52)                                           1 	(obj:0)
d11(5,53)                                           1 	(obj:0)
d11(5,55)                                           1 	(obj:0)
d11(5,56)                                           1 	(obj:0)
d11(5,57)                                           1 	(obj:0)
d11(5,58)                                           1 	(obj:0)
d11(5,59)                                           1 	(obj:0)
d11(5,60)                                           1 	(obj:0)
d11(5,61)                                           1 	(obj:0)
d11(5,62)                                           1 	(obj:0)
d12(2,4)                                            1 	(obj:0)
d12(2,6)                                            1 	(obj:0)
d12(4,16)                                           1 	(obj:0)
d12(4,18)                                           1 	(obj:0)
d12(4,20)                                           1 	(obj:0)
d12(4,22)                                           1 	(obj:0)
d12(4,24)                                           1 	(obj:0)
d12(4,26)                                           1 	(obj:0)
d12(4,28)                                           1 	(obj:0)
d12(4,30)                                           1 	(obj:0)
d21(3,7)                                            1 	(obj:0)
d21(4,15)                                           1 	(obj:0)
d21(5,31)                                           1 	(obj:0)
d21(5,32)                                           1 	(obj:0)
d21(5,33)                                           1 	(obj:0)
d21(5,34)                                           1 	(obj:0)
d21(5,35)                                           1 	(obj:0)
d21(5,37)                                           1 	(obj:0)
d21(5,39)                                           1 	(obj:0)
d21(5,40)                                           1 	(obj:0)
d21(5,41)                                           1 	(obj:0)
d21(5,43)                                           1 	(obj:0)
d21(5,47)                                           1 	(obj:0)
d21(5,48)                                           1 	(obj:0)
d21(5,49)                                           1 	(obj:0)
d21(5,51)                                           1 	(obj:0)
d21(5,55)                                           1 	(obj:0)
STE(1,1)                             2645.99999991201 	(obj:0)
STE(0,0)                                         6300 	(obj:0)
STE(1,2)                             4304.24989880083 	(obj:0)
STE(2,3)                             2141.99999999381 	(obj:0)
STE(2,4)                             3458.21408578853 	(obj:0)
STE(2,5)                             3800.24989880083 	(obj:0)
STE(2,6)                             5116.46398467734 	(obj:0)
STE(3,7)                            -20.2498988950379 	(obj:0)
STE(3,8)                             1638.00000001523 	(obj:0)
STE(3,9)                             1295.96418689968 	(obj:0)
STE(3,10)                            2954.21408578853 	(obj:0)
STE(3,11)                            1637.99999991199 	(obj:0)
STE(3,12)                             3296.2498988008 	(obj:0)
STE(3,13)                            2954.21408578849 	(obj:0)
STE(3,14)                            4612.46398467731 	(obj:0)
STE(4,15)                           -524.249898894995 	(obj:0)
STE(4,16)                            791.964186981468 	(obj:0)
STE(4,17)                            1134.00000001523 	(obj:0)
STE(4,18)                            2450.21408589174 	(obj:0)
STE(4,19)                             791.96418689968 	(obj:0)
STE(4,20)                            2108.17827277619 	(obj:0)
STE(4,21)                            2450.21408578853 	(obj:0)
STE(4,22)                            3766.42817166503 	(obj:0)
STE(4,23)                            1133.99999991199 	(obj:0)
STE(4,24)                            2450.21408578849 	(obj:0)
STE(4,25)                             2792.2498988008 	(obj:0)
STE(4,26)                            4108.46398467731 	(obj:0)
STE(4,27)                            2450.21408578853 	(obj:0)
STE(4,28)                              3766.428171665 	(obj:0)
STE(4,29)                            4108.46398467735 	(obj:0)
STE(4,30)                            5424.67807055382 	(obj:0)
STE(5,31)                           -2686.49979778381 	(obj:0)
STE(5,32)                             -1028.249898895 	(obj:0)
STE(5,33)                           -1370.28571190735 	(obj:0)
STE(5,34)                            287.964186981468 	(obj:0)
STE(5,35)                           -1028.24989887359 	(obj:0)
STE(5,36)                             630.00000001523 	(obj:0)
STE(5,37)                            287.964187002919 	(obj:0)
STE(5,38)                            1946.21408589174 	(obj:0)
STE(5,39)                           -1370.28571198914 	(obj:0)
STE(5,40)                             287.96418689968 	(obj:0)
STE(5,41)                           -54.0716261126318 	(obj:0)
STE(5,42)                            1604.17827277619 	(obj:0)
STE(5,43)                            287.964186899708 	(obj:0)
STE(5,44)                            1946.21408578853 	(obj:0)
STE(5,45)                            1604.17827277621 	(obj:0)
STE(5,46)                            3262.42817166503 	(obj:0)
STE(5,47)                           -1028.24989897683 	(obj:0)
STE(5,48)                            629.999999911987 	(obj:0)
STE(5,49)                            287.964186899675 	(obj:0)
STE(5,50)                            1946.21408578849 	(obj:0)
STE(5,51)                            629.999999911987 	(obj:0)
STE(5,52)                             2288.2498988008 	(obj:0)
STE(5,53)                            1946.21408578849 	(obj:0)
STE(5,54)                            3604.46398467731 	(obj:0)
STE(5,55)                            287.964186899717 	(obj:0)
STE(5,56)                            1946.21408578839 	(obj:0)
STE(5,57)                            1604.17827277618 	(obj:0)
STE(5,58)                              3262.428171665 	(obj:0)
STE(5,59)                            1946.21408578854 	(obj:0)
STE(5,60)                            3604.46398467735 	(obj:0)
STE(5,61)                              3262.428171665 	(obj:0)
STE(5,62)                            4920.67807055382 	(obj:0)
y1(5,39)                             1492.42490899994 	(obj:0)
y1(5,41)                             1492.42490899994 	(obj:0)
y1(5,43)                             1492.42490899994 	(obj:0)
y1(5,45)                             1492.42490899994 	(obj:0)
y1(5,47)                             1492.42490899994 	(obj:0)
y1(5,49)                             1492.42490899994 	(obj:0)
y1(5,51)                             1492.42490899994 	(obj:0)
y1(5,53)                             1492.42490899994 	(obj:0)
y1(5,55)                             1492.42490899994 	(obj:0)
y1(5,57)                             1492.42490899994 	(obj:0)
y1(5,59)                             1492.42490899994 	(obj:0)
y1(5,61)                             1492.42490899994 	(obj:0)
AVE(1)                                   3216.9117036 	(obj:0)
WB(2)                                692.744255724489 	(obj:0)
AVE(2)                                   3366.1541945 	(obj:0)
WB(3)                                    3515.3966854 	(obj:0)
AVE(3)                                   3515.3966854 	(obj:0)
WB(4)                                3515.39406545826 	(obj:0)
AVE(4)                               3515.39406545826 	(obj:0)
WB(5)                                3167.15385943327 	(obj:0)
AVE(5)                               3167.15385943327 	(obj:0)
WG(1)                                    3216.9117036 	(obj:10)
WG(2)                                2673.40993877551 	(obj:10)
BG(1)                                 2349.3553781135 	(obj:10)
BG(3)                                4196.29249897959 	(obj:10)
BG(4)                                2673.40993877551 	(obj:10)
BG(5)                                4196.29249897959 	(obj:10)
y1(1,1)                              2835.00000007919 	(obj:0)
y1(1,2)                              1342.57509107925 	(obj:0)
y1(2,3)                          -7.36143556423485e-008 	(obj:0)
y1(3,7)                              1492.42490899996 	(obj:0)
y1(3,8)                          -1.92801235243678e-008 	(obj:0)
y1(3,9)                              1492.42490899996 	(obj:0)
y1(3,11)                             1492.42490899996 	(obj:0)
y1(3,13)                             1492.42490899996 	(obj:0)
y1(5,31)                             1492.42490899994 	(obj:0)
y1(5,33)                             1492.42490899994 	(obj:0)
y1(5,35)                             1492.42490899994 	(obj:0)
y1(5,37)                             1492.42490899994 	(obj:0)
y2(2,4)                              1385.48851144896 	(obj:0)
y2(2,6)                              1385.48851144895 	(obj:0)
y2(4,16)                             1385.48851144895 	(obj:0)
y2(4,18)                             1385.48851144895 	(obj:0)
y2(4,20)                             1385.48851144895 	(obj:0)
y2(4,22)                             1385.48851144895 	(obj:0)
y2(4,24)                             1385.48851144895 	(obj:0)
y2(4,26)                             1385.48851144895 	(obj:0)
y2(4,28)                             1385.48851144895 	(obj:0)
y2(4,30)                             1385.48851144895 	(obj:0)
